Route #1:
Route #2: 10 9 18 23 17 12
Route #3: 6
Route #4: 30 16
Route #5: 11
Route #6: 8
Route #7: 7 19
Route #8: 27
Route #9: 26 14 22 2 4 1
Route #10: 29
Route #11: 21 13 20 31 3 28 24
Route #12: 15 25 5

Cost: 2086.53815288687
